HUN,8,6,39
3,7,0,4,5,4,1,16,2,2,4,23
5,20,0,20,2,17,4,2,1,21,3,10
5,21,4,2,2,29,1,11,0,27,3,19
4,25,2,16,3,30,0,28,5,21,1,22
4,28,5,12,2,25,1,6,3,30,0,13
4,16,3,20,5,19,1,20,2,12,0,11
5,11,3,17,0,11,1,9,2,24,4,8
3,7,0,25,1,13,4,23,5,23,2,18
